\Problem name: compact

Minimize
OBJROW: C
Subject To
ord(0,1):  - x(0,1) + x(0,2) >= 7
ord(0,2):  x(0,0) - x(0,2) >= 7
ord(1,1):  x(1,0) - x(1,1) >= 4
ord(1,2):  - x(1,0) + x(1,2) >= 3
ord(2,1):  - x(2,1) + x(2,2) >= 7
ord(2,2):  x(2,0) - x(2,2) >= 6
triangle2(0,1,0):  y(0,1,0) + y(1,0,0) = 1
triangle2(0,1,1):  y(0,1,1) + y(1,0,1) = 1
triangle2(0,1,2):  y(0,1,2) + y(1,0,2) = 1
triangle2(0,2,0):  y(0,2,0) + y(2,0,0) = 1
triangle2(0,2,1):  y(0,2,1) + y(2,0,1) = 1
triangle2(0,2,2):  y(0,2,2) + y(2,0,2) = 1
triangle2(1,2,0):  y(1,2,0) + y(2,1,0) = 1
triangle2(1,2,1):  y(1,2,1) + y(2,1,1) = 1
triangle2(1,2,2):  y(1,2,2) + y(2,1,2) = 1
MCLinV(0,1,0):  - x(0,0) + v(0,1,0)p - v(0,1,0)n + x(1,0) = -3
MCLinV(1,0,0):  x(0,0) + v(1,0,0)p - v(1,0,0)n - x(1,0) = -1
MCLin1(0,1,0):  u(0,1,0)p - u(0,1,0)n >= 0
MCLin2(0,1,0):  23 y(1,0,0) + u(0,1,0)p - u(0,1,0)n >= 0
MCLin3(0,1,0):  -36 y(1,0,0) - v(0,1,0)p + v(0,1,0)n + u(0,1,0)p - u(0,1,0)n >= -36
MCLin4(0,1,0):  -36 y(1,0,0) + u(0,1,0)p - u(0,1,0)n <= 0
MCLin5(0,1,0):  23 y(1,0,0) - v(0,1,0)p + v(0,1,0)n + u(0,1,0)p - u(0,1,0)n <= 23
MCLin6(1,0,0):  u(1,0,0)p - u(1,0,0)n >= 0
MCLin7(1,0,0):  40 y(0,1,0) + u(1,0,0)p - u(1,0,0)n >= 0
MCLin8(1,0,0):  -19 y(0,1,0) - v(1,0,0)p + v(1,0,0)n + u(1,0,0)p - u(1,0,0)n >= -19
MCLin9(1,0,0):  -19 y(0,1,0) + u(1,0,0)p - u(1,0,0)n <= 0
MCLin10(1,0,0):  40 y(0,1,0) - v(1,0,0)p + v(1,0,0)n + u(1,0,0)p - u(1,0,0)n <= 40
MCLinV(0,1,1):  - x(0,1) + v(0,1,1)p - v(0,1,1)n + x(1,1) = -4
MCLinV(1,0,1):  x(0,1) + v(1,0,1)p - v(1,0,1)n - x(1,1) = -7
MCLin1(0,1,1):  u(0,1,1)p - u(0,1,1)n >= 0
MCLin2(0,1,1):  34 y(1,0,1) + u(0,1,1)p - u(0,1,1)n >= 0
MCLin3(0,1,1):  -25 y(1,0,1) - v(0,1,1)p + v(0,1,1)n + u(0,1,1)p - u(0,1,1)n >= -25
MCLin4(0,1,1):  -25 y(1,0,1) + u(0,1,1)p - u(0,1,1)n <= 0
MCLin5(0,1,1):  34 y(1,0,1) - v(0,1,1)p + v(0,1,1)n + u(0,1,1)p - u(0,1,1)n <= 34
MCLin6(1,0,1):  u(1,0,1)p - u(1,0,1)n >= 0
MCLin7(1,0,1):  36 y(0,1,1) + u(1,0,1)p - u(1,0,1)n >= 0
MCLin8(1,0,1):  -23 y(0,1,1) - v(1,0,1)p + v(1,0,1)n + u(1,0,1)p - u(1,0,1)n >= -23
MCLin9(1,0,1):  -23 y(0,1,1) + u(1,0,1)p - u(1,0,1)n <= 0
MCLin10(1,0,1):  36 y(0,1,1) - v(1,0,1)p + v(1,0,1)n + u(1,0,1)p - u(1,0,1)n <= 36
MCLinV(0,1,2):  - x(0,2) + v(0,1,2)p - v(0,1,2)n + x(1,2) = -7
MCLinV(1,0,2):  x(0,2) + v(1,0,2)p - v(1,0,2)n - x(1,2) = -7
MCLin1(0,1,2):  u(0,1,2)p - u(0,1,2)n >= 0
MCLin2(0,1,2):  37 y(1,0,2) + u(0,1,2)p - u(0,1,2)n >= 0
MCLin3(0,1,2):  -22 y(1,0,2) - v(0,1,2)p + v(0,1,2)n + u(0,1,2)p - u(0,1,2)n >= -22
MCLin4(0,1,2):  -22 y(1,0,2) + u(0,1,2)p - u(0,1,2)n <= 0
MCLin5(0,1,2):  37 y(1,0,2) - v(0,1,2)p + v(0,1,2)n + u(0,1,2)p - u(0,1,2)n <= 37
MCLin6(1,0,2):  u(1,0,2)p - u(1,0,2)n >= 0
MCLin7(1,0,2):  36 y(0,1,2) + u(1,0,2)p - u(1,0,2)n >= 0
MCLin8(1,0,2):  -23 y(0,1,2) - v(1,0,2)p + v(1,0,2)n + u(1,0,2)p - u(1,0,2)n >= -23
MCLin9(1,0,2):  -23 y(0,1,2) + u(1,0,2)p - u(1,0,2)n <= 0
MCLin10(1,0,2):  36 y(0,1,2) - v(1,0,2)p + v(1,0,2)n + u(1,0,2)p - u(1,0,2)n <= 36
MCLinV(0,2,0):  - x(0,0) + v(0,2,0)p - v(0,2,0)n + x(2,0) = -2
MCLinV(2,0,0):  x(0,0) + v(2,0,0)p - v(2,0,0)n - x(2,0) = -1
MCLin1(0,2,0):  u(0,2,0)p - u(0,2,0)n >= 0
MCLin2(0,2,0):  30 y(2,0,0) + u(0,2,0)p - u(0,2,0)n >= 0
MCLin3(0,2,0):  -28 y(2,0,0) - v(0,2,0)p + v(0,2,0)n + u(0,2,0)p - u(0,2,0)n >= -28
MCLin4(0,2,0):  -28 y(2,0,0) + u(0,2,0)p - u(0,2,0)n <= 0
MCLin5(0,2,0):  30 y(2,0,0) - v(0,2,0)p + v(0,2,0)n + u(0,2,0)p - u(0,2,0)n <= 30
MCLin6(2,0,0):  u(2,0,0)p - u(2,0,0)n >= 0
MCLin7(2,0,0):  31 y(0,2,0) + u(2,0,0)p - u(2,0,0)n >= 0
MCLin8(2,0,0):  -27 y(0,2,0) - v(2,0,0)p + v(2,0,0)n + u(2,0,0)p - u(2,0,0)n >= -27
MCLin9(2,0,0):  -27 y(0,2,0) + u(2,0,0)p - u(2,0,0)n <= 0
MCLin10(2,0,0):  31 y(0,2,0) - v(2,0,0)p + v(2,0,0)n + u(2,0,0)p - u(2,0,0)n <= 31
MCLinV(0,2,1):  - x(0,1) + v(0,2,1)p - v(0,2,1)n + x(2,1) = -7
MCLinV(2,0,1):  x(0,1) + v(2,0,1)p - v(2,0,1)n - x(2,1) = -7
MCLin1(0,2,1):  u(0,2,1)p - u(0,2,1)n >= 0
MCLin2(0,2,1):  36 y(2,0,1) + u(0,2,1)p - u(0,2,1)n >= 0
MCLin3(0,2,1):  -22 y(2,0,1) - v(0,2,1)p + v(0,2,1)n + u(0,2,1)p - u(0,2,1)n >= -22
MCLin4(0,2,1):  -22 y(2,0,1) + u(0,2,1)p - u(0,2,1)n <= 0
MCLin5(0,2,1):  36 y(2,0,1) - v(0,2,1)p + v(0,2,1)n + u(0,2,1)p - u(0,2,1)n <= 36
MCLin6(2,0,1):  u(2,0,1)p - u(2,0,1)n >= 0
MCLin7(2,0,1):  36 y(0,2,1) + u(2,0,1)p - u(2,0,1)n >= 0
MCLin8(2,0,1):  -22 y(0,2,1) - v(2,0,1)p + v(2,0,1)n + u(2,0,1)p - u(2,0,1)n >= -22
MCLin9(2,0,1):  -22 y(0,2,1) + u(2,0,1)p - u(2,0,1)n <= 0
MCLin10(2,0,1):  36 y(0,2,1) - v(2,0,1)p + v(2,0,1)n + u(2,0,1)p - u(2,0,1)n <= 36
MCLinV(0,2,2):  - x(0,2) + v(0,2,2)p - v(0,2,2)n + x(2,2) = -6
MCLinV(2,0,2):  x(0,2) + v(2,0,2)p - v(2,0,2)n - x(2,2) = -7
MCLin1(0,2,2):  u(0,2,2)p - u(0,2,2)n >= 0
MCLin2(0,2,2):  35 y(2,0,2) + u(0,2,2)p - u(0,2,2)n >= 0
MCLin3(0,2,2):  -23 y(2,0,2) - v(0,2,2)p + v(0,2,2)n + u(0,2,2)p - u(0,2,2)n >= -23
MCLin4(0,2,2):  -23 y(2,0,2) + u(0,2,2)p - u(0,2,2)n <= 0
MCLin5(0,2,2):  35 y(2,0,2) - v(0,2,2)p + v(0,2,2)n + u(0,2,2)p - u(0,2,2)n <= 35
MCLin6(2,0,2):  u(2,0,2)p - u(2,0,2)n >= 0
MCLin7(2,0,2):  36 y(0,2,2) + u(2,0,2)p - u(2,0,2)n >= 0
MCLin8(2,0,2):  -22 y(0,2,2) - v(2,0,2)p + v(2,0,2)n + u(2,0,2)p - u(2,0,2)n >= -22
MCLin9(2,0,2):  -22 y(0,2,2) + u(2,0,2)p - u(2,0,2)n <= 0
MCLin10(2,0,2):  36 y(0,2,2) - v(2,0,2)p + v(2,0,2)n + u(2,0,2)p - u(2,0,2)n <= 36
MCLinV(1,2,0):  - x(1,0) + v(1,2,0)p - v(1,2,0)n + x(2,0) = -2
MCLinV(2,1,0):  x(1,0) + v(2,1,0)p - v(2,1,0)n - x(2,0) = -3
MCLin1(1,2,0):  u(1,2,0)p - u(1,2,0)n >= 0
MCLin2(1,2,0):  40 y(2,1,0) + u(1,2,0)p - u(1,2,0)n >= 0
MCLin3(1,2,0):  -19 y(2,1,0) - v(1,2,0)p + v(1,2,0)n + u(1,2,0)p - u(1,2,0)n >= -19
MCLin4(1,2,0):  -19 y(2,1,0) + u(1,2,0)p - u(1,2,0)n <= 0
MCLin5(1,2,0):  40 y(2,1,0) - v(1,2,0)p + v(1,2,0)n + u(1,2,0)p - u(1,2,0)n <= 40
MCLin6(2,1,0):  u(2,1,0)p - u(2,1,0)n >= 0
MCLin7(2,1,0):  24 y(1,2,0) + u(2,1,0)p - u(2,1,0)n >= 0
MCLin8(2,1,0):  -35 y(1,2,0) - v(2,1,0)p + v(2,1,0)n + u(2,1,0)p - u(2,1,0)n >= -35
MCLin9(2,1,0):  -35 y(1,2,0) + u(2,1,0)p - u(2,1,0)n <= 0
MCLin10(2,1,0):  24 y(1,2,0) - v(2,1,0)p + v(2,1,0)n + u(2,1,0)p - u(2,1,0)n <= 24
MCLinV(1,2,1):  - x(1,1) + v(1,2,1)p - v(1,2,1)n + x(2,1) = -7
MCLinV(2,1,1):  x(1,1) + v(2,1,1)p - v(2,1,1)n - x(2,1) = -4
MCLin1(1,2,1):  u(1,2,1)p - u(1,2,1)n >= 0
MCLin2(1,2,1):  36 y(2,1,1) + u(1,2,1)p - u(1,2,1)n >= 0
MCLin3(1,2,1):  -23 y(2,1,1) - v(1,2,1)p + v(1,2,1)n + u(1,2,1)p - u(1,2,1)n >= -23
MCLin4(1,2,1):  -23 y(2,1,1) + u(1,2,1)p - u(1,2,1)n <= 0
MCLin5(1,2,1):  36 y(2,1,1) - v(1,2,1)p + v(1,2,1)n + u(1,2,1)p - u(1,2,1)n <= 36
MCLin6(2,1,1):  u(2,1,1)p - u(2,1,1)n >= 0
MCLin7(2,1,1):  34 y(1,2,1) + u(2,1,1)p - u(2,1,1)n >= 0
MCLin8(2,1,1):  -25 y(1,2,1) - v(2,1,1)p + v(2,1,1)n + u(2,1,1)p - u(2,1,1)n >= -25
MCLin9(2,1,1):  -25 y(1,2,1) + u(2,1,1)p - u(2,1,1)n <= 0
MCLin10(2,1,1):  34 y(1,2,1) - v(2,1,1)p + v(2,1,1)n + u(2,1,1)p - u(2,1,1)n <= 34
MCLinV(1,2,2):  - x(1,2) + v(1,2,2)p - v(1,2,2)n + x(2,2) = -6
MCLinV(2,1,2):  x(1,2) + v(2,1,2)p - v(2,1,2)n - x(2,2) = -7
MCLin1(1,2,2):  u(1,2,2)p - u(1,2,2)n >= 0
MCLin2(1,2,2):  35 y(2,1,2) + u(1,2,2)p - u(1,2,2)n >= 0
MCLin3(1,2,2):  -24 y(2,1,2) - v(1,2,2)p + v(1,2,2)n + u(1,2,2)p - u(1,2,2)n >= -24
MCLin4(1,2,2):  -24 y(2,1,2) + u(1,2,2)p - u(1,2,2)n <= 0
MCLin5(1,2,2):  35 y(2,1,2) - v(1,2,2)p + v(1,2,2)n + u(1,2,2)p - u(1,2,2)n <= 35
MCLin6(2,1,2):  u(2,1,2)p - u(2,1,2)n >= 0
MCLin7(2,1,2):  37 y(1,2,2) + u(2,1,2)p - u(2,1,2)n >= 0
MCLin8(2,1,2):  -22 y(1,2,2) - v(2,1,2)p + v(2,1,2)n + u(2,1,2)p - u(2,1,2)n >= -22
MCLin9(2,1,2):  -22 y(1,2,2) + u(2,1,2)p - u(2,1,2)n <= 0
MCLin10(2,1,2):  37 y(1,2,2) - v(2,1,2)p + v(2,1,2)n + u(2,1,2)p - u(2,1,2)n <= 37
makespan(0):  C - x(0,0) >= 1
makespan(1):  C - x(1,2) >= 7
makespan(2):  C - x(2,0) >= 2
cut_clique_1(0,0):  0.06399 x(0,0) + 0.00769 x(2,0) >= 1
cut_clique_1(1,0):  0.06399 x(0,0) + 0.00731 x(2,0) >= 1
cut_clique_1(2,0):  0.06399 x(0,0) + 0.00709 x(2,0) >= 1
cut_clique_1(3,0):  0.06399 x(0,0) + 0.00702 x(2,0) >= 1
cut_clique_1(4,0):  0.06399 x(0,0) + 0.00695 x(2,0) >= 1
cut_clique_1(0,1):  0.91130 x(0,1) + 0.81356 x(1,1) + 0.95501 x(2,1) >= 1
cut_clique_1(1,1):  0.82938 x(0,1) + 0.58650 x(1,1) + 0.78565 x(2,1) >= 1
cut_clique_1(2,1):  0.82453 x(0,1) + 0.86683 x(1,1) + 0.86202 x(2,1) >= 1
cut_clique_1(3,1):  0.79748 x(0,1) + 0.61477 x(1,1) + 0.86202 x(2,1) >= 1
cut_clique_1(4,1):  0.82453 x(0,1) + 0.95351 x(1,1) + 0.86202 x(2,1) >= 1
cut_clique_1(5,1):  0.97097 x(0,1) + 0.87341 x(1,1) + 0.22770 x(2,1) >= 1
cut_clique_1(6,1):  0.82453 x(0,1) + 0.61477 x(1,1) + 0.86202 x(2,1) >= 1
cut_clique_1(7,1):  0.82938 x(0,1) + 0.58650 x(1,1) + 0.80136 x(2,1) >= 1
cut_clique_1(8,1):  0.99495 x(0,1) + 0.99736 x(1,1) + 0.99369 x(2,1) >= 1
cut_clique_1(9,1):  0.75474 x(0,1) + 0.45591 x(1,1) + 0.86547 x(2,1) >= 1
cut_clique_1(10,1):  0.79748 x(0,1) + 0.65166 x(1,1) + 0.86202 x(2,1) >= 1
cut_clique_1(11,1):  0.75474 x(0,1) + 0.45591 x(1,1) + 0.83085 x(2,1) >= 1
cut_clique_1(12,1):  0.79748 x(0,1) + 0.65166 x(1,1) + 0.78565 x(2,1) >= 1
cut_clique_1(13,1):  0.82938 x(0,1) + 0.65166 x(1,1) + 0.78565 x(2,1) >= 1
cut_clique_1(14,1):  0.78493 x(0,1) + 0.45591 x(1,1) + 0.76438 x(2,1) >= 1
cut_clique_1(15,1):  0.91130 x(0,1) + 0.89492 x(1,1) + 0.95501 x(2,1) >= 1
cut_clique_1(16,1):  0.99495 x(0,1) + 0.95756 x(1,1) + 0.96456 x(2,1) >= 1
cut_clique_1(17,1):  0.99495 x(0,1) + 0.95756 x(1,1) + 0.95501 x(2,1) >= 1
cut_clique_1(18,1):  0.99495 x(0,1) + 0.96714 x(1,1) + 0.99369 x(2,1) >= 1
cut_clique_1(19,1):  0.96597 x(0,1) + 0.89492 x(1,1) + 0.95501 x(2,1) >= 1
cut_clique_1(20,1):  0.99495 x(0,1) + 0.95756 x(1,1) + 0.98385 x(2,1) >= 1
cut_clique_1(21,1):  0.99495 x(0,1) + 0.96831 x(1,1) + 0.99369 x(2,1) >= 1
cut_clique_1(22,1):  0.74568 x(0,1) + 0.45591 x(1,1) + 0.76438 x(2,1) >= 1
cut_clique_1(23,1):  0.82938 x(0,1) + 0.49022 x(1,1) + 0.80136 x(2,1) >= 1
cut_clique_1(24,1):  0.75474 x(0,1) + 0.45591 x(1,1) + 0.76438 x(2,1) >= 1
cut_clique_1(25,1):  0.99495 x(0,1) + 0.95756 x(1,1) + 0.99369 x(2,1) >= 1
cut_clique_1(26,1):  0.76681 x(0,1) + 0.61477 x(1,1) + 0.86202 x(2,1) >= 1
cut_clique_1(27,1):  0.75474 x(0,1) + 0.49022 x(1,1) + 0.86547 x(2,1) >= 1
cut_clique_1(28,1):  0.82453 x(0,1) + 0.83349 x(1,1) + 0.86202 x(2,1) >= 1
cut_clique_1(29,1):  0.79748 x(0,1) + 0.65166 x(1,1) + 0.80168 x(2,1) >= 1
cut_clique_1(30,1):  0.82453 x(0,1) + 0.83349 x(1,1) + 0.78366 x(2,1) >= 1
cut_clique_1(31,1):  0.82453 x(0,1) + 0.92610 x(1,1) + 0.78366 x(2,1) >= 1
cut_clique_1(32,1):  0.82453 x(0,1) + 0.86551 x(1,1) + 0.78366 x(2,1) >= 1
cut_clique_1(33,1):  0.77059 x(0,1) + 0.82618 x(1,1) + 0.74634 x(2,1) >= 1
cut_clique_1(34,1):  0.77059 x(0,1) + 0.82618 x(1,1) + 0.72460 x(2,1) >= 1
cut_clique_1(35,1):  0.77059 x(0,1) + 0.82618 x(1,1) + 0.78761 x(2,1) >= 1
cut_clique_1(36,1):  0.81892 x(0,1) + 0.81356 x(1,1) + 0.85756 x(2,1) >= 1
cut_clique_1(37,1):  0.87625 x(0,1) + 0.81356 x(1,1) + 0.95501 x(2,1) >= 1
cut_clique_1(38,1):  0.82453 x(0,1) + 0.60272 x(1,1) + 0.86202 x(2,1) >= 1
cut_clique_1(39,1):  0.85452 x(0,1) + 0.87341 x(1,1) + 0.22770 x(2,1) >= 1
cut_clique_1(40,1):  0.81892 x(0,1) + 0.81356 x(1,1) + 0.93629 x(2,1) >= 1
cut_clique_1(41,1):  0.82453 x(0,1) + 0.80140 x(1,1) + 0.78366 x(2,1) >= 1
cut_clique_1(42,1):  0.82453 x(0,1) + 0.82618 x(1,1) + 0.74634 x(2,1) >= 1
cut_clique_1(43,1):  0.82453 x(0,1) + 0.82618 x(1,1) + 0.78366 x(2,1) >= 1
cut_clique_1(44,1):  0.80270 x(0,1) + 0.82618 x(1,1) + 0.78761 x(2,1) >= 1
cut_clique_1(45,1):  0.87625 x(0,1) + 0.81356 x(1,1) + 0.93629 x(2,1) >= 1
cut_clique_1(46,1):  0.81892 x(0,1) + 0.81356 x(1,1) + 0.88329 x(2,1) >= 1
cut_clique_1(47,1):  0.75474 x(0,1) + 0.49022 x(1,1) + 0.80136 x(2,1) >= 1
cut_clique_1(48,1):  0.87388 x(0,1) + 0.87341 x(1,1) + 0.22770 x(2,1) >= 1
cut_clique_1(49,1):  0.96597 x(0,1) + 0.95756 x(1,1) + 0.95501 x(2,1) >= 1
cut_clique_1(0,2):  0.03385 x(0,2) + 0.10730 x(1,2) >= 1
cut_clique_1(1,2):  0.03216 x(0,2) + 0.10730 x(1,2) >= 1
cut_clique_1(2,2):  0.02991 x(0,2) + 0.10730 x(1,2) >= 1
cut_clique_1(3,2):  0.02991 x(0,2) + 0.09657 x(1,2) >= 1
cut_clique_1(4,2):  0.02901 x(0,2) + 0.09657 x(1,2) >= 1
cut_clique_1(5,2):  0.02756 x(0,2) + 0.09657 x(1,2) >= 1
cut_clique_1(6,2):  0.02480 x(0,2) + 0.09657 x(1,2) >= 1
cut_clique_1(7,2):  0.02480 x(0,2) + 0.09464 x(1,2) >= 1
cut_clique_1(8,2):  0.02480 x(0,2) + 0.09369 x(1,2) >= 1
cut_clique_2(0,1):  0.14842 x(0,1) + 0.14579 x(2,1) >= 1
cut_clique_2(1,1):  0.16658 x(0,1) + 0.15528 x(2,1) >= 1
cut_clique_2(2,1):  0.16658 x(0,1) + 0.14876 x(2,1) >= 1
cut_clique_2(3,1):  0.14545 x(0,1) + 0.14287 x(2,1) >= 1
cut_clique_2(4,1):  0.19728 x(0,1) + 0.27435 x(2,1) >= 1
cut_clique_2(5,1):  0.20766 x(0,1) + 0.30122 x(2,1) >= 1
cut_clique_2(6,1):  0.24021 x(0,1) + 0.34320 x(2,1) >= 1
cut_clique_2(7,1):  0.20766 x(0,1) + 0.27110 x(2,1) >= 1
cut_clique_2(8,1):  0.20766 x(0,1) + 0.36379 x(2,1) >= 1
cut_clique_2(9,1):  0.20766 x(0,1) + 0.32741 x(2,1) >= 1
cut_clique_2(10,1):  0.24021 x(0,1) + 0.36379 x(2,1) >= 1
cut_clique_2(11,1):  0.23783 x(0,1) + 0.34320 x(2,1) >= 1
cut_clique_2(12,1):  0.21859 x(0,1) + 0.36379 x(2,1) >= 1
cut_clique_2(13,1):  0.23317 x(0,1) + 0.34320 x(2,1) >= 1
cut_clique_2(14,1):  0.19728 x(0,1) + 0.27110 x(2,1) >= 1
cut_clique_2(15,1):  0.19728 x(0,1) + 0.29821 x(2,1) >= 1
cut_clique_2(16,1):  0.21273 x(0,1) + 0.17231 x(2,1) >= 1
cut_clique_2(17,1):  0.23187 x(0,1) + 0.18093 x(2,1) >= 1
cut_clique_2(18,1):  0.23187 x(0,1) + 0.16500 x(2,1) >= 1
cut_clique_2(19,1):  0.21055 x(0,1) + 0.16500 x(2,1) >= 1
cut_clique_2(20,1):  0.18106 x(0,1) + 0.16345 x(2,1) >= 1
cut_clique_2(21,1):  0.15203 x(0,1) + 0.40995 x(2,1) >= 1
cut_clique_2(22,1):  0.15660 x(0,1) + 0.40995 x(2,1) >= 1
cut_clique_2(23,1):  0.16599 x(0,1) + 0.40995 x(2,1) >= 1
cut_clique_2(24,1):  0.17927 x(0,1) + 0.40995 x(2,1) >= 1
cut_clique_2(25,1):  0.18823 x(0,1) + 0.40995 x(2,1) >= 1
cut_clique_2(26,1):  0.17882 x(0,1) + 0.40995 x(2,1) >= 1
cut_clique_2(27,1):  0.19670 x(0,1) + 0.40995 x(2,1) >= 1
cut_clique_2(28,1):  0.18884 x(0,1) + 0.40995 x(2,1) >= 1
cut_clique_2(29,1):  0.20394 x(0,1) + 0.40995 x(2,1) >= 1
cut_clique_2(30,1):  0.14400 x(0,1) + 0.14287 x(2,1) >= 1
cut_clique_2(31,1):  0.14842 x(0,1) + 0.14287 x(2,1) >= 1
cut_clique_2(32,1):  0.16658 x(0,1) + 0.14579 x(2,1) >= 1
cut_clique_2(33,1):  0.22434 x(0,1) + 0.39574 x(2,1) >= 1
cut_clique_2(34,1):  0.20639 x(0,1) + 0.39574 x(2,1) >= 1
cut_clique_2(35,1):  0.16658 x(0,1) + 0.16345 x(2,1) >= 1
cut_clique_2(36,1):  0.22399 x(0,1) + 0.16500 x(2,1) >= 1
cut_clique_2(37,1):  0.16491 x(0,1) + 0.14579 x(2,1) >= 1
cut_clique_2(38,1):  0.16658 x(0,1) + 0.15217 x(2,1) >= 1
cut_clique_2(39,1):  0.16658 x(0,1) + 0.14304 x(2,1) >= 1
cut_clique_2(40,1):  0.23187 x(0,1) + 0.17369 x(2,1) >= 1
cut_clique_2(41,1):  0.18106 x(0,1) + 0.16500 x(2,1) >= 1
cut_clique_2(42,1):  0.20454 x(0,1) + 0.17231 x(2,1) >= 1
cut_clique_2(43,1):  0.23187 x(0,1) + 0.17231 x(2,1) >= 1
cut_clique_2(44,1):  0.20454 x(0,1) + 0.18528 x(2,1) >= 1
cut_clique_2(45,1):  0.19116 x(0,1) + 0.19300 x(2,1) >= 1
cut_clique_2(46,1):  0.20454 x(0,1) + 0.19300 x(2,1) >= 1
cut_clique_2(47,1):  0.21332 x(0,1) + 0.16500 x(2,1) >= 1
cut_clique_2(48,1):  0.19897 x(0,1) + 0.16500 x(2,1) >= 1
cut_clique_2(49,1):  0.18949 x(0,1) + 0.16500 x(2,1) >= 1
cut_clique_2(0,2):  0.05289 x(1,2) + 0.06491 x(2,2) >= 1
cut_clique_2(1,2):  0.05289 x(1,2) + 0.06297 x(2,2) >= 1
cut_clique_2(2,2):  0.05024 x(1,2) + 0.06297 x(2,2) >= 1
cut_clique_2(3,2):  0.05024 x(1,2) + 0.06171 x(2,2) >= 1
cut_clique_2(4,2):  0.04974 x(1,2) + 0.06171 x(2,2) >= 1
cut_clique_2(5,2):  0.04725 x(1,2) + 0.06171 x(2,2) >= 1
cut_clique_2(6,2):  0.04725 x(1,2) + 0.05677 x(2,2) >= 1
cut_clique_2(7,2):  0.04725 x(1,2) + 0.05620 x(2,2) >= 1
cut_clique_2(8,2):  0.04725 x(1,2) + 0.05564 x(2,2) >= 1
cut_clique_3(0,1):  0.27744 x(0,1) + 0.44370 x(1,1) >= 1
cut_clique_3(1,1):  0.27744 x(0,1) + 0.48807 x(1,1) >= 1
cut_clique_3(2,1):  0.26967 x(0,1) + 0.48807 x(1,1) >= 1
cut_clique_3(3,1):  0.26967 x(0,1) + 0.61595 x(1,1) >= 1
cut_clique_3(4,1):  0.27507 x(0,1) + 0.61595 x(1,1) >= 1
cut_clique_3(5,1):  0.28057 x(0,1) + 0.61595 x(1,1) >= 1
cut_clique_3(6,1):  0.27496 x(0,1) + 0.61595 x(1,1) >= 1
cut_clique_3(7,1):  0.27496 x(0,1) + 0.67755 x(1,1) >= 1
cut_clique_3(8,1):  0.27496 x(0,1) + 0.66400 x(1,1) >= 1
cut_clique_3(9,1):  0.27496 x(0,1) + 0.71047 x(1,1) >= 1
cut_clique_3(10,1):  0.06088 x(0,1) + 0.65394 x(1,1) + 0.22382 x(2,1) >= 1
cut_clique_3(11,1):  0.06088 x(0,1) + 0.65394 x(1,1) + 0.21934 x(2,1) >= 1
cut_clique_3(12,1):  0.06088 x(0,1) + 0.71933 x(1,1) + 0.21934 x(2,1) >= 1
cut_clique_3(13,1):  0.06088 x(0,1) + 0.72653 x(1,1) + 0.21934 x(2,1) >= 1
cut_clique_3(14,1):  0.06088 x(0,1) + 0.73379 x(1,1) + 0.21934 x(2,1) >= 1
cut_clique_3(15,1):  0.06088 x(0,1) + 0.77048 x(1,1) + 0.21934 x(2,1) >= 1
cut_clique_3(16,1):  0.06088 x(0,1) + 0.81671 x(1,1) + 0.21934 x(2,1) >= 1
cut_clique_3(17,1):  0.06088 x(0,1) + 0.84938 x(1,1) + 0.21934 x(2,1) >= 1
cut_clique_3(18,1):  0.06088 x(0,1) + 0.86637 x(1,1) + 0.21934 x(2,1) >= 1
cut_clique_3(19,1):  0.06088 x(0,1) + 0.86637 x(1,1) + 0.19741 x(2,1) >= 1
cut_clique_3(20,1):  0.06088 x(0,1) + 0.86637 x(1,1) + 0.18359 x(2,1) >= 1
cut_clique_3(21,1):  0.06088 x(0,1) + 0.92701 x(1,1) + 0.18359 x(2,1) >= 1
cut_clique_3(22,1):  0.05540 x(0,1) + 0.92701 x(1,1) + 0.18359 x(2,1) >= 1
cut_clique_3(23,1):  0.05540 x(0,1) + 0.98263 x(1,1) + 0.18359 x(2,1) >= 1
cut_clique_3(24,1):  0.05540 x(0,1) + 0.98263 x(1,1) + 0.16523 x(2,1) >= 1
cut_clique_3(25,1):  0.05429 x(0,1) + 0.98263 x(1,1) + 0.16523 x(2,1) >= 1
cut_clique_3(26,1):  0.05429 x(0,1) + 0.98263 x(1,1) + 0.15532 x(2,1) >= 1
cut_clique_3(27,1):  0.05266 x(0,1) + 0.98263 x(1,1) + 0.15532 x(2,1) >= 1
cut_clique_3(28,1):  0.05266 x(0,1) + 0.98263 x(1,1) + 0.15376 x(2,1) >= 1
cut_clique_3(29,1):  0.04950 x(0,1) + 0.98263 x(1,1) + 0.15376 x(2,1) >= 1
cut_clique_3(30,1):  0.04604 x(0,1) + 0.98263 x(1,1) + 0.15376 x(2,1) >= 1
cut_clique_3(31,1):  0.04604 x(0,1) + 0.99246 x(1,1) + 0.15376 x(2,1) >= 1
cut_clique_3(32,1):  0.04604 x(0,1) + 0.99246 x(1,1) + 0.13992 x(2,1) >= 1
cut_clique_3(33,1):  0.04604 x(0,1) + 0.99246 x(1,1) + 0.13013 x(2,1) >= 1
cut_clique_3(34,1):  0.04604 x(0,1) + 0.99246 x(1,1) + 0.12883 x(2,1) >= 1
cut_clique_3(35,1):  0.04604 x(0,1) + 0.99246 x(1,1) + 0.12496 x(2,1) >= 1
cut_clique_3(36,1):  0.04558 x(0,1) + 0.99246 x(1,1) + 0.12496 x(2,1) >= 1
cut_clique_4(0,1):  0.25338 x(0,1) + 0.26082 x(1,1) >= 1
cut_clique_4(1,1):  0.25338 x(0,1) + 0.24517 x(1,1) >= 1
cut_clique_4(2,1):  0.25338 x(0,1) + 0.22065 x(1,1) >= 1
cut_clique_4(3,1):  0.25338 x(0,1) + 0.20300 x(1,1) >= 1
cut_clique_4(4,1):  0.25338 x(0,1) + 0.19894 x(1,1) >= 1
cut_clique_4(5,1):  0.25338 x(0,1) + 0.19496 x(1,1) >= 1
cut_clique_4(6,1):  0.25338 x(0,1) + 0.17937 x(1,1) >= 1
cut_clique_4(7,1):  0.25338 x(0,1) + 0.16860 x(1,1) >= 1
cut_clique_4(8,1):  0.25338 x(0,1) + 0.15174 x(1,1) >= 1
cut_clique_4(9,1):  0.25338 x(0,1) + 0.15023 x(1,1) >= 1
cut_clique_4(10,1):  0.25085 x(0,1) + 0.15023 x(1,1) >= 1
cut_clique_4(11,1):  0.25085 x(0,1) + 0.14722 x(1,1) >= 1
cut_clique_4(12,1):  0.25085 x(0,1) + 0.14428 x(1,1) >= 1
cut_clique_5(0,1):  0.14353 x(1,1) + 0.25071 x(2,1) >= 1
Bounds
 0 <= C <= 44
 14 <= x(0,0) <= 43
 0 <= y(0,1,0) <= 1
 0 <= y(1,0,0) <= 1
 0 <= v(0,1,0)p <= 36
 0 <= v(0,1,0)n <= 23
 0 <= v(1,0,0)p <= 19
 0 <= v(1,0,0)n <= 40
 0 <= u(0,1,0)p <= 440
 0 <= u(0,1,0)n <= 440
 0 <= u(1,0,0)p <= 440
 0 <= u(1,0,0)n <= 440
 0 <= y(0,2,0) <= 1
 0 <= y(2,0,0) <= 1
 0 <= v(0,2,0)p <= 28
 0 <= v(0,2,0)n <= 30
 0 <= v(2,0,0)p <= 27
 0 <= v(2,0,0)n <= 31
 0 <= u(0,2,0)p <= 440
 0 <= u(0,2,0)n <= 440
 0 <= u(2,0,0)p <= 440
 0 <= u(2,0,0)n <= 440
 4 <= x(1,0) <= 34
 0 <= y(1,2,0) <= 1
 0 <= y(2,1,0) <= 1
 0 <= v(1,2,0)p <= 19
 0 <= v(1,2,0)n <= 40
 0 <= v(2,1,0)p <= 35
 0 <= v(2,1,0)n <= 24
 0 <= u(1,2,0)p <= 440
 0 <= u(1,2,0)n <= 440
 0 <= u(2,1,0)p <= 440
 0 <= u(2,1,0)n <= 440
 13 <= x(2,0) <= 42
 0 <= x(0,1) <= 29
 0 <= y(0,1,1) <= 1
 0 <= y(1,0,1) <= 1
 0 <= v(0,1,1)p <= 25
 0 <= v(0,1,1)n <= 34
 0 <= v(1,0,1)p <= 23
 0 <= v(1,0,1)n <= 36
 0 <= u(0,1,1)p <= 440
 0 <= u(0,1,1)n <= 440
 0 <= u(1,0,1)p <= 440
 0 <= u(1,0,1)n <= 440
 0 <= y(0,2,1) <= 1
 0 <= y(2,0,1) <= 1
 0 <= v(0,2,1)p <= 22
 0 <= v(0,2,1)n <= 36
 0 <= v(2,0,1)p <= 22
 0 <= v(2,0,1)n <= 36
 0 <= u(0,2,1)p <= 440
 0 <= u(0,2,1)n <= 440
 0 <= u(2,0,1)p <= 440
 0 <= u(2,0,1)n <= 440
 0 <= x(1,1) <= 30
 0 <= y(1,2,1) <= 1
 0 <= y(2,1,1) <= 1
 0 <= v(1,2,1)p <= 23
 0 <= v(1,2,1)n <= 36
 0 <= v(2,1,1)p <= 25
 0 <= v(2,1,1)n <= 34
 0 <= u(1,2,1)p <= 440
 0 <= u(1,2,1)n <= 440
 0 <= u(2,1,1)p <= 440
 0 <= u(2,1,1)n <= 440
 0 <= x(2,1) <= 29
 7 <= x(0,2) <= 36
 0 <= y(0,1,2) <= 1
 0 <= y(1,0,2) <= 1
 0 <= v(0,1,2)p <= 22
 0 <= v(0,1,2)n <= 37
 0 <= v(1,0,2)p <= 23
 0 <= v(1,0,2)n <= 36
 0 <= u(0,1,2)p <= 440
 0 <= u(0,1,2)n <= 440
 0 <= u(1,0,2)p <= 440
 0 <= u(1,0,2)n <= 440
 0 <= y(0,2,2) <= 1
 0 <= y(2,0,2) <= 1
 0 <= v(0,2,2)p <= 23
 0 <= v(0,2,2)n <= 35
 0 <= v(2,0,2)p <= 22
 0 <= v(2,0,2)n <= 36
 0 <= u(0,2,2)p <= 440
 0 <= u(0,2,2)n <= 440
 0 <= u(2,0,2)p <= 440
 0 <= u(2,0,2)n <= 440
 7 <= x(1,2) <= 37
 0 <= y(1,2,2) <= 1
 0 <= y(2,1,2) <= 1
 0 <= v(1,2,2)p <= 24
 0 <= v(1,2,2)n <= 35
 0 <= v(2,1,2)p <= 22
 0 <= v(2,1,2)n <= 37
 0 <= u(1,2,2)p <= 440
 0 <= u(1,2,2)n <= 440
 0 <= u(2,1,2)p <= 440
 0 <= u(2,1,2)n <= 440
 7 <= x(2,2) <= 36
End
